p cnf 529 1
529 0
w 1 0.86122
w 2 1 0.144431
w 2 -1 0.526452
w 3 2 0.816133
w 3 -2 0.864868
w 4 3 1
w 4 -3 0
w 5 4 0
w 5 -4 1
w 6 5 1
w 6 -5 0
w 7 6 1
w 7 -6 0
w 8 7 0.44269
w 8 -7 0.682644
w 9 8 0.636213
w 9 -8 0.248148
w 10 9 1
w 10 -9 0
w 11 10 0.10551
w 11 -10 0.396402
w 12 11 0
w 12 -11 1
w 13 12 1
w 13 -12 0
w 14 13 1
w 14 -13 0
w 15 14 1
w 15 -14 0
w 16 15 1
w 16 -15 0
w 17 16 1
w 17 -16 0
w 18 17 0.35379
w 18 -17 0.671937
w 19 18 0.919869
w 19 -18 0.286439
w 20 19 0.572558
w 20 -19 0.211383
w 21 20 1
w 21 -20 0
w 22 21 1
w 22 -21 0
w 23 22 1
w 23 -22 0
w 24 1 1
w 24 -1 0
w 25 24 2 0.941562
w 25 24 -2 0.475753
w 25 -24 2 0.246202
w 25 -24 -2 0.144461
w 26 25 3 0
w 26 25 -3 0
w 26 -25 3 0
w 26 -25 -3 1
w 27 26 4 0.539592
w 27 26 -4 0.890252
w 27 -26 4 0.254592
w 27 -26 -4 0.390573
w 28 27 5 1
w 28 27 -5 0
w 28 -27 5 1
w 28 -27 -5 1
w 29 28 6 1
w 29 28 -6 0
w 29 -28 6 0
w 29 -28 -6 1
w 30 29 7 0
w 30 29 -7 0
w 30 -29 7 1
w 30 -29 -7 0
w 31 30 8 0.239716
w 31 30 -8 0.157939
w 31 -30 8 0.26512
w 31 -30 -8 0.485918
w 32 31 9 1
w 32 31 -9 0
w 32 -31 9 1
w 32 -31 -9 0
w 33 32 10 0
w 33 32 -10 0
w 33 -32 10 1
w 33 -32 -10 1
w 34 33 11 0
w 34 33 -11 0
w 34 -33 11 1
w 34 -33 -11 1
w 35 34 12 0
w 35 34 -12 1
w 35 -34 12 1
w 35 -34 -12 1
w 36 35 13 1
w 36 35 -13 1
w 36 -35 13 0
w 36 -35 -13 1
w 37 36 14 1
w 37 36 -14 0
w 37 -36 14 0
w 37 -36 -14 1
w 38 37 15 1
w 38 37 -15 1
w 38 -37 15 1
w 38 -37 -15 0
w 39 38 16 1
w 39 38 -16 1
w 39 -38 16 1
w 39 -38 -16 0
w 40 39 17 0
w 40 39 -17 0
w 40 -39 17 1
w 40 -39 -17 1
w 41 40 18 1
w 41 40 -18 0
w 41 -40 18 1
w 41 -40 -18 0
w 42 41 19 0
w 42 41 -19 1
w 42 -41 19 0
w 42 -41 -19 1
w 43 42 20 0.435689
w 43 42 -20 0.358236
w 43 -42 20 0.456832
w 43 -42 -20 0.673352
w 44 43 21 0
w 44 43 -21 0
w 44 -43 21 1
w 44 -43 -21 1
w 45 44 22 1
w 45 44 -22 1
w 45 -44 22 0
w 45 -44 -22 1
w 46 45 23 0
w 46 45 -23 1
w 46 -45 23 0
w 46 -45 -23 1
w 47 24 1
w 47 -24 0
w 48 47 25 1
w 48 47 -25 0
w 48 -47 25 1
w 48 -47 -25 1
w 49 48 26 1
w 49 48 -26 0
w 49 -48 26 0
w 49 -48 -26 0
w 50 49 27 0
w 50 49 -27 1
w 50 -49 27 1
w 50 -49 -27 0
w 51 50 28 0
w 51 50 -28 1
w 51 -50 28 1
w 51 -50 -28 1
w 52 51 29 0
w 52 51 -29 0
w 52 -51 29 1
w 52 -51 -29 1
w 53 52 30 0
w 53 52 -30 1
w 53 -52 30 0
w 53 -52 -30 1
w 54 53 31 1
w 54 53 -31 0
w 54 -53 31 1
w 54 -53 -31 0
w 55 54 32 0
w 55 54 -32 1
w 55 -54 32 1
w 55 -54 -32 1
w 56 55 33 1
w 56 55 -33 1
w 56 -55 33 0
w 56 -55 -33 1
w 57 56 34 0
w 57 56 -34 1
w 57 -56 34 0
w 57 -56 -34 1
w 58 57 35 0.89234
w 58 57 -35 0.418793
w 58 -57 35 0.416559
w 58 -57 -35 0.265069
w 59 58 36 1
w 59 58 -36 0
w 59 -58 36 0
w 59 -58 -36 1
w 60 59 37 0.411673
w 60 59 -37 0.173854
w 60 -59 37 0.414136
w 60 -59 -37 0.8146
w 61 60 38 1
w 61 60 -38 1
w 61 -60 38 0
w 61 -60 -38 0
w 62 61 39 1
w 62 61 -39 0
w 62 -61 39 1
w 62 -61 -39 0
w 63 62 40 0
w 63 62 -40 1
w 63 -62 40 0
w 63 -62 -40 0
w 64 63 41 0.696641
w 64 63 -41 0.446074
w 64 -63 41 0.265989
w 64 -63 -41 0.961709
w 65 64 42 0
w 65 64 -42 1
w 65 -64 42 0
w 65 -64 -42 1
w 66 65 43 1
w 66 65 -43 1
w 66 -65 43 0
w 66 -65 -43 0
w 67 66 44 1
w 67 66 -44 0
w 67 -66 44 1
w 67 -66 -44 1
w 68 67 45 0.669017
w 68 67 -45 0.249965
w 68 -67 45 0.223596
w 68 -67 -45 0.295755
w 69 68 46 0.00300862
w 69 68 -46 0.23069
w 69 -68 46 0.648766
w 69 -68 -46 0.0302896
w 70 47 0
w 70 -47 1
w 71 70 48 0
w 71 70 -48 1
w 71 -70 48 0
w 71 -70 -48 0
w 72 71 49 1
w 72 71 -49 1
w 72 -71 49 0
w 72 -71 -49 0
w 73 72 50 0
w 73 72 -50 0
w 73 -72 50 1
w 73 -72 -50 1
w 74 73 51 1
w 74 73 -51 1
w 74 -73 51 0
w 74 -73 -51 0
w 75 74 52 0
w 75 74 -52 1
w 75 -74 52 1
w 75 -74 -52 0
w 76 75 53 1
w 76 75 -53 0
w 76 -75 53 0
w 76 -75 -53 0
w 77 76 54 0.675644
w 77 76 -54 0.621554
w 77 -76 54 0.272805
w 77 -76 -54 0.822411
w 78 77 55 0
w 78 77 -55 1
w 78 -77 55 1
w 78 -77 -55 0
w 79 78 56 0.500869
w 79 78 -56 0.305558
w 79 -78 56 0.773941
w 79 -78 -56 0.580648
w 80 79 57 0
w 80 79 -57 0
w 80 -79 57 1
w 80 -79 -57 0
w 81 80 58 0
w 81 80 -58 1
w 81 -80 58 1
w 81 -80 -58 1
w 82 81 59 0.895454
w 82 81 -59 0.955393
w 82 -81 59 0.513272
w 82 -81 -59 0.094735
w 83 82 60 1
w 83 82 -60 1
w 83 -82 60 1
w 83 -82 -60 0
w 84 83 61 0.556704
w 84 83 -61 0.638903
w 84 -83 61 0.0211326
w 84 -83 -61 0.90118
w 85 84 62 1
w 85 84 -62 0
w 85 -84 62 1
w 85 -84 -62 0
w 86 85 63 1
w 86 85 -63 0
w 86 -85 63 0
w 86 -85 -63 0
w 87 86 64 0
w 87 86 -64 1
w 87 -86 64 1
w 87 -86 -64 1
w 88 87 65 0
w 88 87 -65 0
w 88 -87 65 0
w 88 -87 -65 1
w 89 88 66 1
w 89 88 -66 0
w 89 -88 66 0
w 89 -88 -66 0
w 90 89 67 0
w 90 89 -67 1
w 90 -89 67 0
w 90 -89 -67 0
w 91 90 68 0.397271
w 91 90 -68 0.583101
w 91 -90 68 0.106107
w 91 -90 -68 0.568537
w 92 91 69 0
w 92 91 -69 0
w 92 -91 69 1
w 92 -91 -69 1
w 93 70 1
w 93 -70 0
w 94 93 71 1
w 94 93 -71 0
w 94 -93 71 1
w 94 -93 -71 0
w 95 94 72 1
w 95 94 -72 0
w 95 -94 72 1
w 95 -94 -72 0
w 96 95 73 0.364667
w 96 95 -73 0.397179
w 96 -95 73 0.384106
w 96 -95 -73 0.725711
w 97 96 74 0
w 97 96 -74 1
w 97 -96 74 1
w 97 -96 -74 1
w 98 97 75 0
w 98 97 -75 0
w 98 -97 75 1
w 98 -97 -75 1
w 99 98 76 0.348605
w 99 98 -76 0.173589
w 99 -98 76 0.726842
w 99 -98 -76 0.888768
w 100 99 77 0.881799
w 100 99 -77 0.233428
w 100 -99 77 0.556704
w 100 -99 -77 0.0522504
w 101 100 78 1
w 101 100 -78 1
w 101 -100 78 0
w 101 -100 -78 0
w 102 101 79 0
w 102 101 -79 1
w 102 -101 79 0
w 102 -101 -79 1
w 103 102 80 0.370978
w 103 102 -80 0.237497
w 103 -102 80 0.567693
w 103 -102 -80 0.869224
w 104 103 81 1
w 104 103 -81 0
w 104 -103 81 0
w 104 -103 -81 0
w 105 104 82 1
w 105 104 -82 0
w 105 -104 82 1
w 105 -104 -82 1
w 106 105 83 0
w 106 105 -83 1
w 106 -105 83 1
w 106 -105 -83 1
w 107 106 84 1
w 107 106 -84 0
w 107 -106 84 1
w 107 -106 -84 1
w 108 107 85 0
w 108 107 -85 0
w 108 -107 85 1
w 108 -107 -85 0
w 109 108 86 0.174525
w 109 108 -86 0.430187
w 109 -108 86 0.220734
w 109 -108 -86 0.742218
w 110 109 87 0
w 110 109 -87 0
w 110 -109 87 1
w 110 -109 -87 0
w 111 110 88 0.96765
w 111 110 -88 0.381066
w 111 -110 88 0.545623
w 111 -110 -88 0.858907
w 112 111 89 0.165085
w 112 111 -89 0.611468
w 112 -111 89 0.185034
w 112 -111 -89 0.0179753
w 113 112 90 0.580167
w 113 112 -90 0.146438
w 113 -112 90 0.385241
w 113 -112 -90 0.16889
w 114 113 91 0.601407
w 114 113 -91 0.294266
w 114 -113 91 0.931411
w 114 -113 -91 0.933896
w 115 114 92 0
w 115 114 -92 0
w 115 -114 92 1
w 115 -114 -92 0
w 116 93 0.0830728
w 116 -93 0.875276
w 117 116 94 0
w 117 116 -94 1
w 117 -116 94 1
w 117 -116 -94 1
w 118 117 95 0.644032
w 118 117 -95 0.159612
w 118 -117 95 0.745317
w 118 -117 -95 0.809118
w 119 118 96 0.930351
w 119 118 -96 0.827093
w 119 -118 96 0.691813
w 119 -118 -96 0.510518
w 120 119 97 0.077054
w 120 119 -97 0.679408
w 120 -119 97 0.776907
w 120 -119 -97 0.678461
w 121 120 98 0.708318
w 121 120 -98 0.612357
w 121 -120 98 0.32715
w 121 -120 -98 0.622967
w 122 121 99 1
w 122 121 -99 1
w 122 -121 99 0
w 122 -121 -99 0
w 123 122 100 1
w 123 122 -100 0
w 123 -122 100 1
w 123 -122 -100 0
w 124 123 101 0.0588916
w 124 123 -101 0.597338
w 124 -123 101 0.987256
w 124 -123 -101 0.804209
w 125 124 102 0
w 125 124 -102 1
w 125 -124 102 1
w 125 -124 -102 0
w 126 125 103 0
w 126 125 -103 1
w 126 -125 103 0
w 126 -125 -103 1
w 127 126 104 0
w 127 126 -104 0
w 127 -126 104 0
w 127 -126 -104 1
w 128 127 105 1
w 128 127 -105 0
w 128 -127 105 0
w 128 -127 -105 1
w 129 128 106 0
w 129 128 -106 0
w 129 -128 106 1
w 129 -128 -106 1
w 130 129 107 0.884588
w 130 129 -107 0.921861
w 130 -129 107 0.515755
w 130 -129 -107 0.871844
w 131 130 108 1
w 131 130 -108 0
w 131 -130 108 1
w 131 -130 -108 0
w 132 131 109 1
w 132 131 -109 0
w 132 -131 109 0
w 132 -131 -109 0
w 133 132 110 0.528354
w 133 132 -110 0.0391293
w 133 -132 110 0.631214
w 133 -132 -110 0.753664
w 134 133 111 0
w 134 133 -111 0
w 134 -133 111 1
w 134 -133 -111 1
w 135 134 112 0
w 135 134 -112 1
w 135 -134 112 0
w 135 -134 -112 1
w 136 135 113 0
w 136 135 -113 1
w 136 -135 113 1
w 136 -135 -113 1
w 137 136 114 0
w 137 136 -114 1
w 137 -136 114 0
w 137 -136 -114 0
w 138 137 115 0
w 138 137 -115 1
w 138 -137 115 1
w 138 -137 -115 1
w 139 116 0
w 139 -116 1
w 140 139 117 0.506268
w 140 139 -117 0.195613
w 140 -139 117 0.724713
w 140 -139 -117 0.860669
w 141 140 118 0
w 141 140 -118 1
w 141 -140 118 0
w 141 -140 -118 1
w 142 141 119 1
w 142 141 -119 1
w 142 -141 119 1
w 142 -141 -119 0
w 143 142 120 1
w 143 142 -120 0
w 143 -142 120 1
w 143 -142 -120 1
w 144 143 121 1
w 144 143 -121 0
w 144 -143 121 0
w 144 -143 -121 0
w 145 144 122 1
w 145 144 -122 1
w 145 -144 122 0
w 145 -144 -122 0
w 146 145 123 1
w 146 145 -123 0
w 146 -145 123 0
w 146 -145 -123 1
w 147 146 124 0
w 147 146 -124 0
w 147 -146 124 0
w 147 -146 -124 1
w 148 147 125 0.726412
w 148 147 -125 0.406012
w 148 -147 125 0.182864
w 148 -147 -125 0.781351
w 149 148 126 1
w 149 148 -126 0
w 149 -148 126 0
w 149 -148 -126 0
w 150 149 127 0.35273
w 150 149 -127 0.608843
w 150 -149 127 0.945604
w 150 -149 -127 0.665264
w 151 150 128 1
w 151 150 -128 0
w 151 -150 128 0
w 151 -150 -128 1
w 152 151 129 1
w 152 151 -129 0
w 152 -151 129 0
w 152 -151 -129 1
w 153 152 130 0
w 153 152 -130 1
w 153 -152 130 1
w 153 -152 -130 1
w 154 153 131 1
w 154 153 -131 1
w 154 -153 131 0
w 154 -153 -131 0
w 155 154 132 1
w 155 154 -132 0
w 155 -154 132 1
w 155 -154 -132 1
w 156 155 133 1
w 156 155 -133 1
w 156 -155 133 1
w 156 -155 -133 0
w 157 156 134 0
w 157 156 -134 0
w 157 -156 134 1
w 157 -156 -134 1
w 158 157 135 0
w 158 157 -135 1
w 158 -157 135 0
w 158 -157 -135 1
w 159 158 136 0
w 159 158 -136 0
w 159 -158 136 1
w 159 -158 -136 1
w 160 159 137 1
w 160 159 -137 0
w 160 -159 137 0
w 160 -159 -137 1
w 161 160 138 1
w 161 160 -138 1
w 161 -160 138 0
w 161 -160 -138 1
w 162 139 1
w 162 -139 0
w 163 162 140 1
w 163 162 -140 0
w 163 -162 140 0
w 163 -162 -140 0
w 164 163 141 0
w 164 163 -141 1
w 164 -163 141 1
w 164 -163 -141 0
w 165 164 142 0.169229
w 165 164 -142 0.826625
w 165 -164 142 0.648647
w 165 -164 -142 0.300134
w 166 165 143 0
w 166 165 -143 1
w 166 -165 143 0
w 166 -165 -143 0
w 167 166 144 1
w 167 166 -144 0
w 167 -166 144 0
w 167 -166 -144 0
w 168 167 145 0.589238
w 168 167 -145 0.669749
w 168 -167 145 0.938724
w 168 -167 -145 0.939178
w 169 168 146 1
w 169 168 -146 1
w 169 -168 146 1
w 169 -168 -146 0
w 170 169 147 0
w 170 169 -147 1
w 170 -169 147 0
w 170 -169 -147 0
w 171 170 148 0.520761
w 171 170 -148 0.915719
w 171 -170 148 0.117076
w 171 -170 -148 0.0613491
w 172 171 149 1
w 172 171 -149 0
w 172 -171 149 1
w 172 -171 -149 0
w 173 172 150 0.266442
w 173 172 -150 0.156166
w 173 -172 150 0.708873
w 173 -172 -150 0.178705
w 174 173 151 1
w 174 173 -151 1
w 174 -173 151 0
w 174 -173 -151 0
w 175 174 152 1
w 175 174 -152 1
w 175 -174 152 1
w 175 -174 -152 0
w 176 175 153 0.596257
w 176 175 -153 0.574128
w 176 -175 153 0.549953
w 176 -175 -153 0.290393
w 177 176 154 0.366895
w 177 176 -154 0.811154
w 177 -176 154 0.756919
w 177 -176 -154 0.48397
w 178 177 155 0.227471
w 178 177 -155 0.444854
w 178 -177 155 0.393901
w 178 -177 -155 0.549456
w 179 178 156 0.22672
w 179 178 -156 0.815898
w 179 -178 156 0.122832
w 179 -178 -156 0.935593
w 180 179 157 0.868236
w 180 179 -157 0.314216
w 180 -179 157 0.112033
w 180 -179 -157 0.552818
w 181 180 158 1
w 181 180 -158 1
w 181 -180 158 0
w 181 -180 -158 0
w 182 181 159 0
w 182 181 -159 0
w 182 -181 159 0
w 182 -181 -159 1
w 183 182 160 0.0906862
w 183 182 -160 0.425293
w 183 -182 160 0.688889
w 183 -182 -160 0.847605
w 184 183 161 0.561393
w 184 183 -161 0.0750765
w 184 -183 161 0.354118
w 184 -183 -161 0.955293
w 185 162 0
w 185 -162 1
w 186 185 163 1
w 186 185 -163 0
w 186 -185 163 1
w 186 -185 -163 1
w 187 186 164 1
w 187 186 -164 0
w 187 -186 164 0
w 187 -186 -164 1
w 188 187 165 1
w 188 187 -165 1
w 188 -187 165 0
w 188 -187 -165 1
w 189 188 166 0.731526
w 189 188 -166 0.31993
w 189 -188 166 0.842175
w 189 -188 -166 0.609261
w 190 189 167 0
w 190 189 -167 1
w 190 -189 167 0
w 190 -189 -167 0
w 191 190 168 0.333298
w 191 190 -168 0.530849
w 191 -190 168 0.814836
w 191 -190 -168 0.957831
w 192 191 169 0.996849
w 192 191 -169 0.398261
w 192 -191 169 0.295248
w 192 -191 -169 0.114455
w 193 192 170 0.607099
w 193 192 -170 0.546277
w 193 -192 170 0.380361
w 193 -192 -170 0.471769
w 194 193 171 1
w 194 193 -171 1
w 194 -193 171 0
w 194 -193 -171 1
w 195 194 172 0.27451
w 195 194 -172 0.409166
w 195 -194 172 0.25723
w 195 -194 -172 0.116685
w 196 195 173 0
w 196 195 -173 1
w 196 -195 173 0
w 196 -195 -173 0
w 197 196 174 1
w 197 196 -174 0
w 197 -196 174 0
w 197 -196 -174 1
w 198 197 175 1
w 198 197 -175 0
w 198 -197 175 0
w 198 -197 -175 1
w 199 198 176 1
w 199 198 -176 1
w 199 -198 176 1
w 199 -198 -176 0
w 200 199 177 0
w 200 199 -177 1
w 200 -199 177 0
w 200 -199 -177 0
w 201 200 178 1
w 201 200 -178 0
w 201 -200 178 1
w 201 -200 -178 0
w 202 201 179 0
w 202 201 -179 1
w 202 -201 179 0
w 202 -201 -179 0
w 203 202 180 1
w 203 202 -180 1
w 203 -202 180 0
w 203 -202 -180 1
w 204 203 181 1
w 204 203 -181 0
w 204 -203 181 1
w 204 -203 -181 0
w 205 204 182 0
w 205 204 -182 1
w 205 -204 182 1
w 205 -204 -182 1
w 206 205 183 1
w 206 205 -183 0
w 206 -205 183 1
w 206 -205 -183 1
w 207 206 184 1
w 207 206 -184 1
w 207 -206 184 1
w 207 -206 -184 0
w 208 185 0
w 208 -185 1
w 209 208 186 0
w 209 208 -186 1
w 209 -208 186 1
w 209 -208 -186 1
w 210 209 187 1
w 210 209 -187 0
w 210 -209 187 0
w 210 -209 -187 0
w 211 210 188 0
w 211 210 -188 0
w 211 -210 188 1
w 211 -210 -188 0
w 212 211 189 1
w 212 211 -189 0
w 212 -211 189 1
w 212 -211 -189 0
w 213 212 190 0.492537
w 213 212 -190 0.88536
w 213 -212 190 0.262062
w 213 -212 -190 0.0304091
w 214 213 191 0
w 214 213 -191 0
w 214 -213 191 0
w 214 -213 -191 1
w 215 214 192 1
w 215 214 -192 1
w 215 -214 192 1
w 215 -214 -192 0
w 216 215 193 0
w 216 215 -193 1
w 216 -215 193 0
w 216 -215 -193 0
w 217 216 194 0.594366
w 217 216 -194 0.0146716
w 217 -216 194 0.299499
w 217 -216 -194 0.624209
w 218 217 195 0
w 218 217 -195 0
w 218 -217 195 1
w 218 -217 -195 0
w 219 218 196 1
w 219 218 -196 1
w 219 -218 196 0
w 219 -218 -196 1
w 220 219 197 1
w 220 219 -197 0
w 220 -219 197 1
w 220 -219 -197 1
w 221 220 198 0
w 221 220 -198 1
w 221 -220 198 0
w 221 -220 -198 1
w 222 221 199 0
w 222 221 -199 1
w 222 -221 199 1
w 222 -221 -199 1
w 223 222 200 1
w 223 222 -200 0
w 223 -222 200 0
w 223 -222 -200 0
w 224 223 201 0
w 224 223 -201 1
w 224 -223 201 1
w 224 -223 -201 1
w 225 224 202 0
w 225 224 -202 0
w 225 -224 202 1
w 225 -224 -202 1
w 226 225 203 0
w 226 225 -203 1
w 226 -225 203 1
w 226 -225 -203 1
w 227 226 204 1
w 227 226 -204 1
w 227 -226 204 1
w 227 -226 -204 0
w 228 227 205 0.178859
w 228 227 -205 0.562385
w 228 -227 205 0.0679961
w 228 -227 -205 0.95734
w 229 228 206 0
w 229 228 -206 1
w 229 -228 206 0
w 229 -228 -206 1
w 230 229 207 0.687194
w 230 229 -207 0.194845
w 230 -229 207 0.824735
w 230 -229 -207 0.0162445
w 231 208 1
w 231 -208 0
w 232 231 209 1
w 232 231 -209 1
w 232 -231 209 0
w 232 -231 -209 1
w 233 232 210 1
w 233 232 -210 1
w 233 -232 210 0
w 233 -232 -210 0
w 234 233 211 0
w 234 233 -211 1
w 234 -233 211 1
w 234 -233 -211 0
w 235 234 212 0.987057
w 235 234 -212 0.368586
w 235 -234 212 0.868001
w 235 -234 -212 0.11951
w 236 235 213 1
w 236 235 -213 0
w 236 -235 213 1
w 236 -235 -213 1
w 237 236 214 0.994002
w 237 236 -214 0.436217
w 237 -236 214 0.824966
w 237 -236 -214 0.611837
w 238 237 215 0
w 238 237 -215 0
w 238 -237 215 1
w 238 -237 -215 0
w 239 238 216 1
w 239 238 -216 0
w 239 -238 216 1
w 239 -238 -216 0
w 240 239 217 1
w 240 239 -217 0
w 240 -239 217 0
w 240 -239 -217 1
w 241 240 218 1
w 241 240 -218 1
w 241 -240 218 0
w 241 -240 -218 1
w 242 241 219 1
w 242 241 -219 0
w 242 -241 219 1
w 242 -241 -219 0
w 243 242 220 1
w 243 242 -220 0
w 243 -242 220 0
w 243 -242 -220 1
w 244 243 221 1
w 244 243 -221 1
w 244 -243 221 0
w 244 -243 -221 0
w 245 244 222 0
w 245 244 -222 0
w 245 -244 222 0
w 245 -244 -222 1
w 246 245 223 0
w 246 245 -223 1
w 246 -245 223 0
w 246 -245 -223 0
w 247 246 224 1
w 247 246 -224 0
w 247 -246 224 1
w 247 -246 -224 0
w 248 247 225 0
w 248 247 -225 0
w 248 -247 225 1
w 248 -247 -225 0
w 249 248 226 0.838261
w 249 248 -226 0.640019
w 249 -248 226 0.974866
w 249 -248 -226 0.275368
w 250 249 227 0.15655
w 250 249 -227 0.0961427
w 250 -249 227 0.785824
w 250 -249 -227 0.881323
w 251 250 228 0
w 251 250 -228 1
w 251 -250 228 1
w 251 -250 -228 0
w 252 251 229 1
w 252 251 -229 0
w 252 -251 229 0
w 252 -251 -229 1
w 253 252 230 0.742976
w 253 252 -230 0.34007
w 253 -252 230 0.121482
w 253 -252 -230 0.689483
w 254 231 1
w 254 -231 0
w 255 254 232 1
w 255 254 -232 0
w 255 -254 232 0
w 255 -254 -232 1
w 256 255 233 1
w 256 255 -233 1
w 256 -255 233 0
w 256 -255 -233 0
w 257 256 234 0
w 257 256 -234 0
w 257 -256 234 1
w 257 -256 -234 0
w 258 257 235 0.674612
w 258 257 -235 0.542431
w 258 -257 235 0.356666
w 258 -257 -235 0.835423
w 259 258 236 0
w 259 258 -236 1
w 259 -258 236 0
w 259 -258 -236 1
w 260 259 237 1
w 260 259 -237 0
w 260 -259 237 1
w 260 -259 -237 0
w 261 260 238 1
w 261 260 -238 0
w 261 -260 238 0
w 261 -260 -238 0
w 262 261 239 0.751538
w 262 261 -239 0.534704
w 262 -261 239 0.801766
w 262 -261 -239 0.181366
w 263 262 240 0
w 263 262 -240 1
w 263 -262 240 0
w 263 -262 -240 1
w 264 263 241 0
w 264 263 -241 1
w 264 -263 241 1
w 264 -263 -241 1
w 265 264 242 0
w 265 264 -242 1
w 265 -264 242 0
w 265 -264 -242 0
w 266 265 243 0.412714
w 266 265 -243 0.272895
w 266 -265 243 0.934719
w 266 -265 -243 0.536681
w 267 266 244 1
w 267 266 -244 0
w 267 -266 244 0
w 267 -266 -244 1
w 268 267 245 0
w 268 267 -245 1
w 268 -267 245 1
w 268 -267 -245 0
w 269 268 246 0
w 269 268 -246 1
w 269 -268 246 0
w 269 -268 -246 0
w 270 269 247 0
w 270 269 -247 1
w 270 -269 247 0
w 270 -269 -247 1
w 271 270 248 1
w 271 270 -248 0
w 271 -270 248 1
w 271 -270 -248 1
w 272 271 249 0
w 272 271 -249 1
w 272 -271 249 0
w 272 -271 -249 1
w 273 272 250 1
w 273 272 -250 0
w 273 -272 250 1
w 273 -272 -250 1
w 274 273 251 1
w 274 273 -251 1
w 274 -273 251 0
w 274 -273 -251 0
w 275 274 252 1
w 275 274 -252 0
w 275 -274 252 1
w 275 -274 -252 1
w 276 275 253 1
w 276 275 -253 0
w 276 -275 253 1
w 276 -275 -253 0
w 277 254 0.833636
w 277 -254 0.890455
w 278 277 255 0
w 278 277 -255 1
w 278 -277 255 0
w 278 -277 -255 1
w 279 278 256 0.456609
w 279 278 -256 0.0175955
w 279 -278 256 0.895202
w 279 -278 -256 0.176678
w 280 279 257 0
w 280 279 -257 0
w 280 -279 257 1
w 280 -279 -257 1
w 281 280 258 0.0699543
w 281 280 -258 0.470217
w 281 -280 258 0.648939
w 281 -280 -258 0.597001
w 282 281 259 0
w 282 281 -259 0
w 282 -281 259 0
w 282 -281 -259 1
w 283 282 260 0.508262
w 283 282 -260 0.456051
w 283 -282 260 0.587032
w 283 -282 -260 0.341898
w 284 283 261 1
w 284 283 -261 0
w 284 -283 261 1
w 284 -283 -261 1
w 285 284 262 1
w 285 284 -262 0
w 285 -284 262 1
w 285 -284 -262 1
w 286 285 263 1
w 286 285 -263 0
w 286 -285 263 1
w 286 -285 -263 1
w 287 286 264 1
w 287 286 -264 0
w 287 -286 264 1
w 287 -286 -264 0
w 288 287 265 0
w 288 287 -265 0
w 288 -287 265 1
w 288 -287 -265 1
w 289 288 266 0
w 289 288 -266 1
w 289 -288 266 1
w 289 -288 -266 0
w 290 289 267 0
w 290 289 -267 0
w 290 -289 267 1
w 290 -289 -267 0
w 291 290 268 0
w 291 290 -268 0
w 291 -290 268 1
w 291 -290 -268 0
w 292 291 269 0.997448
w 292 291 -269 0.0345676
w 292 -291 269 0.251056
w 292 -291 -269 0.529375
w 293 292 270 0.321723
w 293 292 -270 0.131255
w 293 -292 270 0.172238
w 293 -292 -270 0.0413295
w 294 293 271 0
w 294 293 -271 1
w 294 -293 271 1
w 294 -293 -271 1
w 295 294 272 0
w 295 294 -272 1
w 295 -294 272 0
w 295 -294 -272 1
w 296 295 273 0
w 296 295 -273 0
w 296 -295 273 0
w 296 -295 -273 1
w 297 296 274 0
w 297 296 -274 0
w 297 -296 274 0
w 297 -296 -274 1
w 298 297 275 0
w 298 297 -275 1
w 298 -297 275 1
w 298 -297 -275 0
w 299 298 276 0
w 299 298 -276 1
w 299 -298 276 1
w 299 -298 -276 1
w 300 277 0
w 300 -277 1
w 301 300 278 1
w 301 300 -278 1
w 301 -300 278 0
w 301 -300 -278 0
w 302 301 279 0.775831
w 302 301 -279 0.202949
w 302 -301 279 0.786145
w 302 -301 -279 0.19903
w 303 302 280 0.745378
w 303 302 -280 0.637593
w 303 -302 280 0.614153
w 303 -302 -280 0.758367
w 304 303 281 1
w 304 303 -281 1
w 304 -303 281 0
w 304 -303 -281 1
w 305 304 282 0.0452696
w 305 304 -282 0.31774
w 305 -304 282 0.513802
w 305 -304 -282 0.2406
w 306 305 283 1
w 306 305 -283 0
w 306 -305 283 0
w 306 -305 -283 1
w 307 306 284 0.119178
w 307 306 -284 0.891117
w 307 -306 284 0.811864
w 307 -306 -284 0.437359
w 308 307 285 0.587696
w 308 307 -285 0.640309
w 308 -307 285 0.636368
w 308 -307 -285 0.786725
w 309 308 286 1
w 309 308 -286 0
w 309 -308 286 1
w 309 -308 -286 0
w 310 309 287 0.432186
w 310 309 -287 0.343399
w 310 -309 287 0.312921
w 310 -309 -287 0.150418
w 311 310 288 0.0818085
w 311 310 -288 0.195688
w 311 -310 288 0.296124
w 311 -310 -288 0.595611
w 312 311 289 1
w 312 311 -289 0
w 312 -311 289 0
w 312 -311 -289 1
w 313 312 290 1
w 313 312 -290 1
w 313 -312 290 1
w 313 -312 -290 0
w 314 313 291 0
w 314 313 -291 0
w 314 -313 291 0
w 314 -313 -291 1
w 315 314 292 1
w 315 314 -292 0
w 315 -314 292 0
w 315 -314 -292 0
w 316 315 293 0
w 316 315 -293 1
w 316 -315 293 1
w 316 -315 -293 1
w 317 316 294 1
w 317 316 -294 1
w 317 -316 294 0
w 317 -316 -294 1
w 318 317 295 1
w 318 317 -295 0
w 318 -317 295 0
w 318 -317 -295 0
w 319 318 296 0.778753
w 319 318 -296 0.809599
w 319 -318 296 0.338752
w 319 -318 -296 0.528424
w 320 319 297 0
w 320 319 -297 1
w 320 -319 297 1
w 320 -319 -297 1
w 321 320 298 0.111209
w 321 320 -298 0.962846
w 321 -320 298 0.538294
w 321 -320 -298 0.693117
w 322 321 299 1
w 322 321 -299 0
w 322 -321 299 0
w 322 -321 -299 0
w 323 300 0.072319
w 323 -300 0.169896
w 324 323 301 0
w 324 323 -301 1
w 324 -323 301 1
w 324 -323 -301 0
w 325 324 302 0.869357
w 325 324 -302 0.593386
w 325 -324 302 0.617899
w 325 -324 -302 0.64811
w 326 325 303 0
w 326 325 -303 1
w 326 -325 303 1
w 326 -325 -303 1
w 327 326 304 0
w 327 326 -304 0
w 327 -326 304 1
w 327 -326 -304 1
w 328 327 305 1
w 328 327 -305 1
w 328 -327 305 1
w 328 -327 -305 0
w 329 328 306 0.916363
w 329 328 -306 0.883963
w 329 -328 306 0.674474
w 329 -328 -306 0.988682
w 330 329 307 0
w 330 329 -307 0
w 330 -329 307 0
w 330 -329 -307 1
w 331 330 308 1
w 331 330 -308 1
w 331 -330 308 0
w 331 -330 -308 0
w 332 331 309 0
w 332 331 -309 1
w 332 -331 309 0
w 332 -331 -309 1
w 333 332 310 0
w 333 332 -310 0
w 333 -332 310 1
w 333 -332 -310 0
w 334 333 311 0.273846
w 334 333 -311 0.590715
w 334 -333 311 0.557732
w 334 -333 -311 0.690627
w 335 334 312 1
w 335 334 -312 0
w 335 -334 312 1
w 335 -334 -312 0
w 336 335 313 0
w 336 335 -313 0
w 336 -335 313 1
w 336 -335 -313 0
w 337 336 314 0
w 337 336 -314 1
w 337 -336 314 1
w 337 -336 -314 0
w 338 337 315 0
w 338 337 -315 1
w 338 -337 315 1
w 338 -337 -315 0
w 339 338 316 1
w 339 338 -316 0
w 339 -338 316 0
w 339 -338 -316 1
w 340 339 317 0.250929
w 340 339 -317 0.442717
w 340 -339 317 0.342071
w 340 -339 -317 0.808661
w 341 340 318 0
w 341 340 -318 0
w 341 -340 318 0
w 341 -340 -318 1
w 342 341 319 1
w 342 341 -319 1
w 342 -341 319 1
w 342 -341 -319 0
w 343 342 320 0
w 343 342 -320 0
w 343 -342 320 1
w 343 -342 -320 1
w 344 343 321 0
w 344 343 -321 1
w 344 -343 321 0
w 344 -343 -321 1
w 345 344 322 0.0270409
w 345 344 -322 0.825773
w 345 -344 322 0.138787
w 345 -344 -322 0.367494
w 346 323 0.890143
w 346 -323 0.618422
w 347 346 324 0
w 347 346 -324 1
w 347 -346 324 1
w 347 -346 -324 0
w 348 347 325 1
w 348 347 -325 1
w 348 -347 325 0
w 348 -347 -325 0
w 349 348 326 1
w 349 348 -326 0
w 349 -348 326 0
w 349 -348 -326 1
w 350 349 327 1
w 350 349 -327 1
w 350 -349 327 0
w 350 -349 -327 0
w 351 350 328 0.636159
w 351 350 -328 0.562364
w 351 -350 328 0.824521
w 351 -350 -328 0.6632
w 352 351 329 0
w 352 351 -329 1
w 352 -351 329 0
w 352 -351 -329 0
w 353 352 330 0
w 353 352 -330 0
w 353 -352 330 1
w 353 -352 -330 0
w 354 353 331 0.669489
w 354 353 -331 0.824642
w 354 -353 331 0.24141
w 354 -353 -331 0.284514
w 355 354 332 1
w 355 354 -332 0
w 355 -354 332 1
w 355 -354 -332 0
w 356 355 333 1
w 356 355 -333 1
w 356 -355 333 0
w 356 -355 -333 1
w 357 356 334 0
w 357 356 -334 0
w 357 -356 334 0
w 357 -356 -334 1
w 358 357 335 0.972167
w 358 357 -335 0.781347
w 358 -357 335 0.736818
w 358 -357 -335 0.621282
w 359 358 336 1
w 359 358 -336 1
w 359 -358 336 0
w 359 -358 -336 1
w 360 359 337 0
w 360 359 -337 1
w 360 -359 337 1
w 360 -359 -337 1
w 361 360 338 0.332793
w 361 360 -338 0.683903
w 361 -360 338 0.721242
w 361 -360 -338 0.732833
w 362 361 339 0.874864
w 362 361 -339 0.374947
w 362 -361 339 0.377914
w 362 -361 -339 0.9704
w 363 362 340 0
w 363 362 -340 0
w 363 -362 340 0
w 363 -362 -340 1
w 364 363 341 0.56686
w 364 363 -341 0.568256
w 364 -363 341 0.510642
w 364 -363 -341 0.188142
w 365 364 342 0
w 365 364 -342 0
w 365 -364 342 1
w 365 -364 -342 1
w 366 365 343 0
w 366 365 -343 1
w 366 -365 343 1
w 366 -365 -343 0
w 367 366 344 0.884431
w 367 366 -344 0.103044
w 367 -366 344 0.66769
w 367 -366 -344 0.605672
w 368 367 345 0.597539
w 368 367 -345 0.480536
w 368 -367 345 0.210824
w 368 -367 -345 0.975453
w 369 346 1
w 369 -346 0
w 370 369 347 0
w 370 369 -347 1
w 370 -369 347 0
w 370 -369 -347 1
w 371 370 348 1
w 371 370 -348 0
w 371 -370 348 0
w 371 -370 -348 0
w 372 371 349 0.099364
w 372 371 -349 0.0507878
w 372 -371 349 0.168009
w 372 -371 -349 0.468507
w 373 372 350 0.0775735
w 373 372 -350 0.562579
w 373 -372 350 0.644949
w 373 -372 -350 0.0613604
w 374 373 351 0
w 374 373 -351 1
w 374 -373 351 1
w 374 -373 -351 1
w 375 374 352 1
w 375 374 -352 0
w 375 -374 352 0
w 375 -374 -352 1
w 376 375 353 1
w 376 375 -353 1
w 376 -375 353 0
w 376 -375 -353 0
w 377 376 354 0
w 377 376 -354 1
w 377 -376 354 0
w 377 -376 -354 0
w 378 377 355 0
w 378 377 -355 1
w 378 -377 355 1
w 378 -377 -355 0
w 379 378 356 0.34969
w 379 378 -356 0.271194
w 379 -378 356 0.487265
w 379 -378 -356 0.994639
w 380 379 357 1
w 380 379 -357 1
w 380 -379 357 0
w 380 -379 -357 1
w 381 380 358 0
w 381 380 -358 0
w 381 -380 358 1
w 381 -380 -358 0
w 382 381 359 1
w 382 381 -359 0
w 382 -381 359 0
w 382 -381 -359 0
w 383 382 360 0
w 383 382 -360 1
w 383 -382 360 1
w 383 -382 -360 1
w 384 383 361 0
w 384 383 -361 0
w 384 -383 361 1
w 384 -383 -361 0
w 385 384 362 0.957002
w 385 384 -362 0.827697
w 385 -384 362 0.265432
w 385 -384 -362 0.951641
w 386 385 363 1
w 386 385 -363 1
w 386 -385 363 1
w 386 -385 -363 0
w 387 386 364 1
w 387 386 -364 0
w 387 -386 364 1
w 387 -386 -364 1
w 388 387 365 1
w 388 387 -365 1
w 388 -387 365 0
w 388 -387 -365 0
w 389 388 366 0.311691
w 389 388 -366 0.859801
w 389 -388 366 0.537088
w 389 -388 -366 0.64896
w 390 389 367 0
w 390 389 -367 0
w 390 -389 367 0
w 390 -389 -367 1
w 391 390 368 1
w 391 390 -368 0
w 391 -390 368 1
w 391 -390 -368 1
w 392 369 0
w 392 -369 1
w 393 392 370 1
w 393 392 -370 1
w 393 -392 370 1
w 393 -392 -370 0
w 394 393 371 1
w 394 393 -371 0
w 394 -393 371 1
w 394 -393 -371 1
w 395 394 372 1
w 395 394 -372 1
w 395 -394 372 0
w 395 -394 -372 0
w 396 395 373 1
w 396 395 -373 0
w 396 -395 373 1
w 396 -395 -373 0
w 397 396 374 1
w 397 396 -374 1
w 397 -396 374 1
w 397 -396 -374 0
w 398 397 375 0.436487
w 398 397 -375 0.0540178
w 398 -397 375 0.0761189
w 398 -397 -375 0.992779
w 399 398 376 1
w 399 398 -376 1
w 399 -398 376 0
w 399 -398 -376 1
w 400 399 377 0
w 400 399 -377 0
w 400 -399 377 1
w 400 -399 -377 1
w 401 400 378 0.192452
w 401 400 -378 0.154024
w 401 -400 378 0.646434
w 401 -400 -378 0.36627
w 402 401 379 0.289836
w 402 401 -379 0.0771758
w 402 -401 379 0.425585
w 402 -401 -379 0.190341
w 403 402 380 1
w 403 402 -380 0
w 403 -402 380 1
w 403 -402 -380 1
w 404 403 381 1
w 404 403 -381 1
w 404 -403 381 1
w 404 -403 -381 0
w 405 404 382 0
w 405 404 -382 1
w 405 -404 382 1
w 405 -404 -382 1
w 406 405 383 0.297451
w 406 405 -383 0.7075
w 406 -405 383 0.791866
w 406 -405 -383 0.14506
w 407 406 384 0
w 407 406 -384 0
w 407 -406 384 0
w 407 -406 -384 1
w 408 407 385 0
w 408 407 -385 1
w 408 -407 385 0
w 408 -407 -385 0
w 409 408 386 0.238448
w 409 408 -386 0.804537
w 409 -408 386 0.982739
w 409 -408 -386 0.352971
w 410 409 387 0
w 410 409 -387 1
w 410 -409 387 0
w 410 -409 -387 1
w 411 410 388 0
w 411 410 -388 1
w 411 -410 388 1
w 411 -410 -388 0
w 412 411 389 1
w 412 411 -389 1
w 412 -411 389 1
w 412 -411 -389 0
w 413 412 390 1
w 413 412 -390 1
w 413 -412 390 0
w 413 -412 -390 1
w 414 413 391 1
w 414 413 -391 1
w 414 -413 391 0
w 414 -413 -391 0
w 415 392 0
w 415 -392 1
w 416 415 393 1
w 416 415 -393 0
w 416 -415 393 1
w 416 -415 -393 1
w 417 416 394 0.952091
w 417 416 -394 0.796125
w 417 -416 394 0.277101
w 417 -416 -394 0.436784
w 418 417 395 0
w 418 417 -395 0
w 418 -417 395 0
w 418 -417 -395 1
w 419 418 396 0.934351
w 419 418 -396 0.286006
w 419 -418 396 0.0458069
w 419 -418 -396 0.317891
w 420 419 397 1
w 420 419 -397 0
w 420 -419 397 1
w 420 -419 -397 0
w 421 420 398 0
w 421 420 -398 0
w 421 -420 398 0
w 421 -420 -398 1
w 422 421 399 0
w 422 421 -399 0
w 422 -421 399 1
w 422 -421 -399 1
w 423 422 400 1
w 423 422 -400 0
w 423 -422 400 1
w 423 -422 -400 0
w 424 423 401 0
w 424 423 -401 0
w 424 -423 401 0
w 424 -423 -401 1
w 425 424 402 0
w 425 424 -402 1
w 425 -424 402 1
w 425 -424 -402 1
w 426 425 403 0
w 426 425 -403 1
w 426 -425 403 1
w 426 -425 -403 1
w 427 426 404 0.579867
w 427 426 -404 0.735379
w 427 -426 404 0.709937
w 427 -426 -404 0.999254
w 428 427 405 1
w 428 427 -405 0
w 428 -427 405 0
w 428 -427 -405 0
w 429 428 406 1
w 429 428 -406 1
w 429 -428 406 0
w 429 -428 -406 1
w 430 429 407 1
w 430 429 -407 1
w 430 -429 407 0
w 430 -429 -407 1
w 431 430 408 1
w 431 430 -408 1
w 431 -430 408 0
w 431 -430 -408 1
w 432 431 409 0.119946
w 432 431 -409 0.993136
w 432 -431 409 0.111744
w 432 -431 -409 0.770521
w 433 432 410 1
w 433 432 -410 1
w 433 -432 410 0
w 433 -432 -410 1
w 434 433 411 0
w 434 433 -411 1
w 434 -433 411 0
w 434 -433 -411 0
w 435 434 412 1
w 435 434 -412 0
w 435 -434 412 0
w 435 -434 -412 0
w 436 435 413 1
w 436 435 -413 1
w 436 -435 413 0
w 436 -435 -413 1
w 437 436 414 0
w 437 436 -414 0
w 437 -436 414 0
w 437 -436 -414 1
w 438 415 0.51327
w 438 -415 0.657101
w 439 438 416 0
w 439 438 -416 0
w 439 -438 416 0
w 439 -438 -416 1
w 440 439 417 0
w 440 439 -417 0
w 440 -439 417 0
w 440 -439 -417 1
w 441 440 418 0
w 441 440 -418 0
w 441 -440 418 1
w 441 -440 -418 1
w 442 441 419 0
w 442 441 -419 0
w 442 -441 419 0
w 442 -441 -419 1
w 443 442 420 1
w 443 442 -420 0
w 443 -442 420 0
w 443 -442 -420 1
w 444 443 421 0.233084
w 444 443 -421 0.662127
w 444 -443 421 0.519607
w 444 -443 -421 0.82062
w 445 444 422 0
w 445 444 -422 1
w 445 -444 422 0
w 445 -444 -422 0
w 446 445 423 1
w 446 445 -423 0
w 446 -445 423 0
w 446 -445 -423 0
w 447 446 424 0
w 447 446 -424 0
w 447 -446 424 0
w 447 -446 -424 1
w 448 447 425 0
w 448 447 -425 1
w 448 -447 425 0
w 448 -447 -425 0
w 449 448 426 1
w 449 448 -426 1
w 449 -448 426 1
w 449 -448 -426 0
w 450 449 427 0
w 450 449 -427 1
w 450 -449 427 0
w 450 -449 -427 1
w 451 450 428 1
w 451 450 -428 1
w 451 -450 428 0
w 451 -450 -428 1
w 452 451 429 0.87714
w 452 451 -429 0.582774
w 452 -451 429 0.337896
w 452 -451 -429 0.124355
w 453 452 430 0.0230204
w 453 452 -430 0.115111
w 453 -452 430 0.750954
w 453 -452 -430 0.985835
w 454 453 431 0
w 454 453 -431 0
w 454 -453 431 1
w 454 -453 -431 1
w 455 454 432 1
w 455 454 -432 0
w 455 -454 432 1
w 455 -454 -432 0
w 456 455 433 0.804346
w 456 455 -433 0.473896
w 456 -455 433 0.602986
w 456 -455 -433 0.998389
w 457 456 434 1
w 457 456 -434 1
w 457 -456 434 0
w 457 -456 -434 1
w 458 457 435 0.108251
w 458 457 -435 0.546308
w 458 -457 435 0.250333
w 458 -457 -435 0.232606
w 459 458 436 1
w 459 458 -436 1
w 459 -458 436 0
w 459 -458 -436 1
w 460 459 437 0.0823882
w 460 459 -437 0.463349
w 460 -459 437 0.804998
w 460 -459 -437 0.400368
w 461 438 0.642095
w 461 -438 0.530277
w 462 461 439 0
w 462 461 -439 1
w 462 -461 439 1
w 462 -461 -439 0
w 463 462 440 1
w 463 462 -440 0
w 463 -462 440 1
w 463 -462 -440 0
w 464 463 441 0
w 464 463 -441 0
w 464 -463 441 0
w 464 -463 -441 1
w 465 464 442 1
w 465 464 -442 1
w 465 -464 442 1
w 465 -464 -442 0
w 466 465 443 0.981629
w 466 465 -443 0.351883
w 466 -465 443 0.69025
w 466 -465 -443 0.0640176
w 467 466 444 0.495248
w 467 466 -444 0.464385
w 467 -466 444 0.709909
w 467 -466 -444 0.137343
w 468 467 445 0.940655
w 468 467 -445 0.668416
w 468 -467 445 0.329286
w 468 -467 -445 0.645298
w 469 468 446 0.662299
w 469 468 -446 0.782283
w 469 -468 446 0.713978
w 469 -468 -446 0.300431
w 470 469 447 1
w 470 469 -447 1
w 470 -469 447 0
w 470 -469 -447 1
w 471 470 448 0
w 471 470 -448 1
w 471 -470 448 1
w 471 -470 -448 1
w 472 471 449 1
w 472 471 -449 0
w 472 -471 449 0
w 472 -471 -449 0
w 473 472 450 0
w 473 472 -450 1
w 473 -472 450 1
w 473 -472 -450 1
w 474 473 451 0.239791
w 474 473 -451 0.468825
w 474 -473 451 0.272869
w 474 -473 -451 0.885089
w 475 474 452 0
w 475 474 -452 1
w 475 -474 452 0
w 475 -474 -452 1
w 476 475 453 0
w 476 475 -453 0
w 476 -475 453 0
w 476 -475 -453 1
w 477 476 454 0
w 477 476 -454 0
w 477 -476 454 1
w 477 -476 -454 0
w 478 477 455 0
w 478 477 -455 0
w 478 -477 455 0
w 478 -477 -455 1
w 479 478 456 1
w 479 478 -456 1
w 479 -478 456 1
w 479 -478 -456 0
w 480 479 457 0.423693
w 480 479 -457 0.229093
w 480 -479 457 0.749599
w 480 -479 -457 0.694993
w 481 480 458 1
w 481 480 -458 1
w 481 -480 458 0
w 481 -480 -458 1
w 482 481 459 0
w 482 481 -459 1
w 482 -481 459 0
w 482 -481 -459 0
w 483 482 460 0.0117113
w 483 482 -460 0.571333
w 483 -482 460 0.0347265
w 483 -482 -460 0.974072
w 484 461 0.613912
w 484 -461 0.710429
w 485 484 462 0
w 485 484 -462 0
w 485 -484 462 1
w 485 -484 -462 1
w 486 485 463 1
w 486 485 -463 0
w 486 -485 463 1
w 486 -485 -463 1
w 487 486 464 0.274843
w 487 486 -464 0.614318
w 487 -486 464 0.0398486
w 487 -486 -464 0.691815
w 488 487 465 0
w 488 487 -465 0
w 488 -487 465 1
w 488 -487 -465 0
w 489 488 466 0
w 489 488 -466 0
w 489 -488 466 0
w 489 -488 -466 1
w 490 489 467 0
w 490 489 -467 0
w 490 -489 467 1
w 490 -489 -467 1
w 491 490 468 0.555136
w 491 490 -468 0.203368
w 491 -490 468 0.0204144
w 491 -490 -468 0.0958998
w 492 491 469 0.681147
w 492 491 -469 0.591532
w 492 -491 469 0.540134
w 492 -491 -469 0.206391
w 493 492 470 0
w 493 492 -470 1
w 493 -492 470 1
w 493 -492 -470 0
w 494 493 471 0
w 494 493 -471 0
w 494 -493 471 0
w 494 -493 -471 1
w 495 494 472 0.0188486
w 495 494 -472 0.524679
w 495 -494 472 0.575136
w 495 -494 -472 0.895947
w 496 495 473 0.849059
w 496 495 -473 0.807772
w 496 -495 473 0.0985516
w 496 -495 -473 0.0178912
w 497 496 474 1
w 497 496 -474 0
w 497 -496 474 1
w 497 -496 -474 1
w 498 497 475 0
w 498 497 -475 0
w 498 -497 475 1
w 498 -497 -475 0
w 499 498 476 0.386372
w 499 498 -476 0.47214
w 499 -498 476 0.896492
w 499 -498 -476 0.841942
w 500 499 477 0
w 500 499 -477 1
w 500 -499 477 0
w 500 -499 -477 1
w 501 500 478 0
w 501 500 -478 1
w 501 -500 478 1
w 501 -500 -478 0
w 502 501 479 0.0339631
w 502 501 -479 0.385565
w 502 -501 479 0.000555805
w 502 -501 -479 0.0518543
w 503 502 480 1
w 503 502 -480 1
w 503 -502 480 0
w 503 -502 -480 0
w 504 503 481 0
w 504 503 -481 0
w 504 -503 481 1
w 504 -503 -481 1
w 505 504 482 0.325585
w 505 504 -482 0.043485
w 505 -504 482 0.434436
w 505 -504 -482 0.222077
w 506 505 483 0.0796251
w 506 505 -483 0.538333
w 506 -505 483 0.622649
w 506 -505 -483 0.742623
w 507 484 1
w 507 -484 0
w 508 507 485 0
w 508 507 -485 1
w 508 -507 485 0
w 508 -507 -485 0
w 509 508 486 0
w 509 508 -486 0
w 509 -508 486 0
w 509 -508 -486 1
w 510 509 487 0
w 510 509 -487 0
w 510 -509 487 0
w 510 -509 -487 1
w 511 510 488 0
w 511 510 -488 0
w 511 -510 488 1
w 511 -510 -488 0
w 512 511 489 1
w 512 511 -489 0
w 512 -511 489 0
w 512 -511 -489 1
w 513 512 490 1
w 513 512 -490 1
w 513 -512 490 1
w 513 -512 -490 0
w 514 513 491 0.321675
w 514 513 -491 0.907727
w 514 -513 491 0.958554
w 514 -513 -491 0.392184
w 515 514 492 1
w 515 514 -492 0
w 515 -514 492 1
w 515 -514 -492 1
w 516 515 493 1
w 516 515 -493 1
w 516 -515 493 0
w 516 -515 -493 1
w 517 516 494 0
w 517 516 -494 1
w 517 -516 494 1
w 517 -516 -494 1
w 518 517 495 1
w 518 517 -495 0
w 518 -517 495 1
w 518 -517 -495 1
w 519 518 496 0
w 519 518 -496 1
w 519 -518 496 0
w 519 -518 -496 0
w 520 519 497 0.613245
w 520 519 -497 0.492688
w 520 -519 497 0.142655
w 520 -519 -497 0.972256
w 521 520 498 0.605903
w 521 520 -498 0.834406
w 521 -520 498 0.292352
w 521 -520 -498 0.223725
w 522 521 499 0.108484
w 522 521 -499 0.182996
w 522 -521 499 0.236576
w 522 -521 -499 0.97393
w 523 522 500 0
w 523 522 -500 0
w 523 -522 500 1
w 523 -522 -500 0
w 524 523 501 0.259179
w 524 523 -501 0.527983
w 524 -523 501 0.824711
w 524 -523 -501 0.305201
w 525 524 502 0.0398231
w 525 524 -502 0.883043
w 525 -524 502 0.232406
w 525 -524 -502 0.745341
w 526 525 503 1
w 526 525 -503 1
w 526 -525 503 0
w 526 -525 -503 0
w 527 526 504 0
w 527 526 -504 1
w 527 -526 504 1
w 527 -526 -504 1
w 528 527 505 0.989824
w 528 527 -505 0.14977
w 528 -527 505 0.138156
w 528 -527 -505 0.2264
w 529 528 506 1
w 529 528 -506 0
w 529 -528 506 0
w 529 -528 -506 0